certificates/rado_a7_c16_N16.cnf
c Rad2 upper bound instance: x1 + 7*x2 - x3 = 16, interval [1,16]
p cnf 16 70
1 3 6 0
-1 -3 -6 0
1 4 13 0
-1 -4 -13 0
2 3 7 0
-2 -3 -7 0
2 4 14 0
-2 -4 -14 0
1 2 3 0
-1 -2 -3 0
3 8 0
-3 -8 0
3 4 15 0
-3 -4 -15 0
2 4 0
-2 -4 0
3 4 9 0
-3 -4 -9 0
4 16 0
-4 -16 0
2 3 5 0
-2 -3 -5 0
3 5 10 0
-3 -5 -10 0
2 4 6 0
-2 -4 -6 0
3 6 11 0
-3 -6 -11 0
2 5 7 0
-2 -5 -7 0
3 7 12 0
-3 -7 -12 0
2 6 8 0
-2 -6 -8 0
3 8 13 0
-3 -8 -13 0
2 7 9 0
-2 -7 -9 0
3 9 14 0
-3 -9 -14 0
1 10 0
-1 -10 0
2 8 10 0
-2 -8 -10 0
3 10 15 0
-3 -10 -15 0
1 2 11 0
-1 -2 -11 0
2 9 11 0
-2 -9 -11 0
3 11 16 0
-3 -11 -16 0
1 3 12 0
-1 -3 -12 0
2 10 12 0
-2 -10 -12 0
2 11 13 0
-2 -11 -13 0
1 5 14 0
-1 -5 -14 0
2 12 14 0
-2 -12 -14 0
1 6 15 0
-1 -6 -15 0
2 13 15 0
-2 -13 -15 0
1 7 16 0
-1 -7 -16 0
2 14 16 0
-2 -14 -16 0
