certificates/rado_a7_c16_N16.drat
-15 4 0
-16 0
4 0
-2 0
14 0
15 0
-3 0
7 0
8 0
5 0
1 0
11 0
0
